42125
14 15 20 -1 500 500 500 
18 10 9 4 19 11 16 2 7 8 17 1 12 13 5 6 -1 250 100 500 100 50 50 25 25 50 50 50 50 50 100 25 25 
2
1
6 19 -1 25 15 
10 -1 40 
10 -1 40 
10 17 -1 20 20 
19 11 -1 35 5 
8 -1 40 
8 17 -1 10 30 
11 -1 40 
11 16 2 -1 5 25 10 
2 12 -1 15 25 
12 3 -1 25 15 
2
3 -1 10 
